c A SAT instance generated from a 3-CNF formula that had 16 clauses and 8 variables
p cnf 8 16
4 -5 6 0
8 -4 7 0
5 6 -7 0
-3 -2 7 0
3 -4 -5 0
-6 7 -1 0
-8 -3 4 0
7 4 -2 0
-1 -3 7 0
-6 7 2 0
7 2 -3 0
-2 -1 8 0
-8 -2 1 0
-6 1 -8 0
2 -1 -6 0
1 3 -5 0
